Normalized Data/p10_19_normalized_split0.vrp
NAME:p10_19_NORMALIZED_split
BEST_KNOWN: 0
COMMENT: 0
DIMENSION: 796
CAPACITY: 100
EDGE_WEIGHT_FORMAT: FUNCTION
EDGE_WEIGHT_TYPE: EXACT_2D
NODE_COORD_SECTION
1 0.00000 0.00000
2 -26 -24
3 -26 -24
4 -26 -24
5 -26 -24
6 46 50
7 46 50
8 -43 35
9 -43 35
10 -43 35
11 1 -7
12 1 -7
13 38 49
14 38 49
15 33 38
16 33 38
17 33 38
18 33 38
19 33 38
20 -41 -27
21 -41 -27
22 -41 -27
23 -41 -27
24 -41 -27
25 -32 13
26 -32 13
27 -32 13
28 -32 13
29 44 -42
30 44 -42
31 44 -42
32 44 -42
33 44 -42
34 3 22
35 3 22
36 21 -27
37 21 -27
38 21 -27
39 21 -27
40 -27 -40
41 -27 -40
42 -27 -40
43 -27 -40
44 -27 -40
45 -27 -40
46 -20 23
47 -20 23
48 -20 23
49 -20 23
50 -20 23
51 -20 23
52 4 33
53 4 33
54 4 33
55 4 33
56 4 33
57 -36 3
58 -36 3
59 -36 3
60 -36 3
61 -36 3
62 -36 3
63 -36 3
64 20 21
65 20 21
66 13 -30
67 13 -30
68 13 -30
69 13 -30
70 13 -30
71 13 -30
72 -33 -36
73 -33 -36
74 -33 -36
75 -33 -36
76 -33 -36
77 -31 30
78 -31 30
79 -31 30
80 -31 30
81 -31 30
82 -31 30
83 -39 -44
84 -39 -44
85 -39 -44
86 -39 13
87 -39 13
88 -39 13
89 -39 -23
90 6 46
91 6 46
92 6 46
93 6 46
94 -50 -33
95 -50 -33
96 -20 38
97 -20 38
98 30 22
99 30 22
100 30 22
101 30 22
102 30 22
103 30 22
104 30 22
105 -35 -9
106 -35 -9
107 -35 -9
108 -35 -9
109 -35 -9
110 -35 -9
111 31 25
112 31 25
113 31 25
114 31 25
115 31 25
116 31 25
117 39 -39
118 39 -39
119 39 -39
120 39 -39
121 45 3
122 45 3
123 45 3
124 45 3
125 45 3
126 -10 25
127 -46 17
128 -46 17
129 -46 17
130 21 -45
131 21 -45
132 21 -45
133 21 -45
134 21 -45
135 21 -45
136 11 -43
137 11 -43
138 11 -43
139 -24 -9
140 -24 -9
141 -24 -9
142 -24 -9
143 -24 -9
144 -1 11
145 -1 11
146 24 -26
147 24 -26
148 24 -28
149 24 -28
150 24 -28
151 24 -28
152 24 -28
153 24 -28
154 24 -28
155 -13 -15
156 -13 -15
157 -13 -15
158 -13 -15
159 -13 -15
160 -13 -15
161 35 6
162 35 6
163 35 6
164 35 6
165 35 6
166 35 6
167 28 14
168 28 14
169 -10 -48
170 -10 -48
171 -10 -48
172 13 14
173 13 14
174 13 14
175 13 14
176 13 14
177 42 43
178 42 43
179 42 43
180 42 43
181 42 43
182 -35 -42
183 -35 -42
184 -35 -42
185 -4 -20
186 -4 -20
187 -4 -20
188 -4 -20
189 -4 -20
190 24 0
191 24 0
192 40 -46
193 40 -46
194 40 -46
195 40 -46
196 0 49
197 0 49
198 0 49
199 0 49
200 0 49
201 0 49
202 -10 -22
203 -10 -22
204 -10 -22
205 -10 -22
206 -10 -22
207 -10 -22
208 -4 20
209 -4 20
210 -4 20
211 -4 20
212 -23 2
213 -23 2
214 -23 2
215 -23 2
216 -23 2
217 1 28
218 1 28
219 1 28
220 -44 4
221 -44 4
222 -44 4
223 -44 4
224 -44 4
225 -44 4
226 -24 -14
227 -24 -14
228 -24 -14
229 -24 -14
230 36 38
231 36 38
232 36 38
233 36 38
234 36 38
235 -6 -15
236 -6 -15
237 15 44
238 15 44
239 15 44
240 15 44
241 39 20
242 39 20
243 39 20
244 39 20
245 -22 37
246 -22 37
247 -22 37
248 -22 37
249 -22 37
250 -22 37
251 13 -42
252 13 -42
253 13 -42
254 13 -42
255 20 -27
256 20 -27
257 20 -27
258 20 -27
259 13 -14
260 13 -14
261 13 -14
262 -13 9
263 -13 9
264 -13 9
265 -13 9
266 39 -20
267 39 -20
268 39 -20
269 39 -20
270 41 11
271 41 11
272 41 11
273 41 11
274 41 11
275 5 28
276 45 3
277 45 3
278 45 3
279 45 3
280 45 3
281 -17 -22
282 -17 -22
283 -17 -22
284 -17 -22
285 -17 -34
286 -17 -34
287 -17 -34
288 -34 -28
289 -34 -28
290 -34 -28
291 -34 -28
292 -34 -28
293 30 -24
294 -42 -47
295 -42 -47
296 -42 -47
297 -42 -47
298 -42 -47
299 -6 -37
300 -6 -37
301 -6 -37
302 -40 -11
303 -40 -11
304 35 -22
305 35 -22
306 11 46
307 11 46
308 11 46
309 11 46
310 11 46
311 11 46
312 -37 35
313 -37 35
314 -26 -15
315 -26 -15
316 -26 -15
317 -26 -15
318 -26 -15
319 46 -39
320 16 5
321 16 5
322 16 5
323 16 5
324 16 5
325 -22 -22
326 -22 -22
327 -9 -32
328 -9 -32
329 -9 -32
330 -9 -32
331 -9 -32
332 -9 -32
333 50 6
334 50 6
335 50 6
336 50 6
337 50 6
338 50 6
339 -10 -19
340 -10 -19
341 -10 -19
342 -10 -19
343 12 20
344 12 20
345 12 20
346 12 20
347 -24 -14
348 -24 -14
349 2 20
350 2 20
351 2 20
352 2 20
353 2 20
354 2 20
355 -48 -24
356 -48 -24
357 -48 -24
358 -48 -24
359 -48 -24
360 -48 -24
361 -12 -33
362 -12 -33
363 -12 -33
364 -12 -33
365 -12 -33
366 -12 -33
367 -1 -33
368 -1 -33
369 -1 -33
370 -1 -33
371 -19 -12
372 -19 -12
373 -19 -12
374 -19 -12
375 -19 -12
376 -19 -12
377 13 42
378 13 42
379 13 42
380 13 42
381 13 42
382 13 42
383 39 -40
384 39 -40
385 39 -40
386 14 -1
387 14 -1
388 14 -1
389 6 -36
390 6 -36
391 6 -36
392 6 -36
393 37 -11
394 37 -11
395 37 -11
396 37 -11
397 37 -11
398 37 -11
399 -18 6
400 -18 6
401 -18 6
402 -18 6
403 -18 6
404 -18 6
405 17 10
406 17 10
407 -33 17
408 -33 17
409 -33 17
410 -33 17
411 -33 17
412 -47 23
413 -47 23
414 -47 23
415 32 -32
416 32 -32
417 32 -32
418 32 -32
419 32 -32
420 32 -32
421 -50 31
422 -50 31
423 -50 31
424 -50 31
425 -50 31
426 -50 31
427 -46 -1
428 -46 -1
429 -46 -1
430 -15 -3
431 -15 -3
432 -15 -3
433 -15 -3
434 -15 -3
435 -15 -3
436 -25 -26
437 -25 -26
438 -25 -26
439 -25 -26
440 -25 -26
441 12 20
442 12 20
443 12 20
444 12 20
445 -37 -4
446 -37 -4
447 -37 -4
448 -37 -4
449 -37 -4
450 22 -27
451 22 -27
452 22 -27
453 22 -27
454 38 -31
455 38 -31
456 -45 5
457 -45 5
458 -45 5
459 -45 5
460 -45 5
461 -45 5
462 40 17
463 40 17
464 40 17
465 37 -30
466 37 -30
467 37 -30
468 -34 17
469 -34 17
470 -34 17
471 -34 17
472 16 -24
473 16 -24
474 16 -24
475 -34 -22
476 -34 -22
477 -34 -22
478 -34 -22
479 -34 -22
480 -22 -34
481 -22 -34
482 -22 -34
483 -22 -34
484 28 47
485 28 47
486 28 47
487 28 47
488 28 47
489 28 47
490 9 29
491 9 29
492 47 -31
493 47 -31
494 47 -31
495 47 -31
496 -29 11
497 -29 11
498 34 43
499 34 43
500 34 43
501 34 43
502 34 43
503 -21 5
504 -21 5
505 -21 5
506 -21 5
507 38 -9
508 38 -9
509 5 33
510 5 33
511 5 33
512 -28 40
513 -28 40
514 -28 40
515 -28 40
516 -25 17
517 -25 17
518 32 12
519 32 12
520 32 12
521 -6 26
522 -6 26
523 -6 26
524 -6 26
525 -1 50
526 -1 50
527 -1 50
528 -1 50
529 -1 50
530 -34 -23
531 -34 -23
532 -34 -23
533 -15 -43
534 -15 -43
535 -15 -43
536 -15 -43
537 -15 -43
538 -40 -17
539 -40 -17
540 34 -45
541 34 -45
542 31 30
543 31 30
544 31 30
545 -12 36
546 -12 36
547 -12 36
548 5 -8
549 5 -8
550 5 -8
551 5 -8
552 5 5
553 5 5
554 5 5
555 5 5
556 32 8
557 32 8
558 32 8
559 32 8
560 40 27
561 40 27
562 40 27
563 -49 -32
564 -49 -32
565 -49 -32
566 22 -46
567 22 -46
568 22 -46
569 19 17
570 19 17
571 19 17
572 43 45
573 43 45
574 43 45
575 43 45
576 43 45
577 43 45
578 -45 -12
579 -45 -12
580 -45 -12
581 -45 -12
582 -45 -12
583 0 -44
584 0 -44
585 0 -44
586 0 -44
587 -37 -44
588 -37 -44
589 -37 -44
590 -37 -44
591 3 4
592 3 4
593 3 4
594 3 4
595 -46 -9
596 -46 -9
597 -46 -9
598 -46 -9
599 -46 -9
600 -23 -42
601 -23 -42
602 -23 -42
603 -23 -42
604 -23 -42
605 9 -20
606 9 -20
607 9 -20
608 10 -3
609 10 -3
610 10 -3
611 10 -3
612 10 -3
613 -27 -4
614 -27 -4
615 25 -25
616 25 -25
617 25 -25
618 -12 28
619 -34 -46
620 -34 -46
621 -34 -46
622 -34 -46
623 -34 -46
624 44 -13
625 44 -13
626 44 -13
627 -45 25
628 -45 25
629 -45 25
630 -45 25
631 -45 25
632 -45 25
633 -12 -46
634 -12 -46
635 -11 -30
636 -11 -30
637 40 9
638 40 9
639 40 9
640 40 9
641 40 9
642 2 -24
643 2 -24
644 2 -24
645 2 -24
646 -16 12
647 -16 12
648 37 -26
649 37 -26
650 37 -26
651 37 -26
652 37 -26
653 37 -26
654 -45 25
655 -45 25
656 -45 25
657 -45 25
658 -25 -25
659 3 -22
660 3 -22
661 -38 36
662 -38 36
663 -38 36
664 -38 36
665 -44 43
666 -44 43
667 -44 43
668 -44 43
669 -42 26
670 -42 26
671 -42 26
672 -42 26
673 -42 26
674 -42 26
675 -44 35
676 -44 35
677 -44 35
678 -44 35
679 -44 35
680 -44 35
681 -33 -12
682 -33 -12
683 -33 -12
684 27 4
685 27 4
686 27 4
687 27 4
688 -30 -4
689 -30 -4
690 -30 -4
691 -30 -4
692 -30 -4
693 19 11
694 19 11
695 -37 18
696 -37 18
697 -37 18
698 -37 18
699 -37 18
700 -37 18
701 -37 18
702 10 -46
703 10 -46
704 10 -46
705 14 -28
706 14 -28
707 14 -28
708 14 -28
709 14 -28
710 14 -28
711 11 22
712 11 22
713 11 22
714 11 22
715 -24 44
716 -24 44
717 -24 44
718 -24 44
719 4 29
720 4 29
721 -11 27
722 -11 27
723 -11 27
724 -11 27
725 -31 23
726 -31 23
727 -31 23
728 -31 23
729 -15 18
730 -15 18
731 -15 18
732 -15 18
733 -20 -16
734 -20 -16
735 -20 -16
736 -20 -16
737 2 2
738 2 2
739 2 2
740 2 2
741 2 2
742 2 2
743 8 -38
744 8 -38
745 8 -38
746 8 -38
747 8 -38
748 -9 -36
749 -9 -36
750 -6 35
751 -6 35
752 41 -31
753 41 -31
754 25 10
755 25 10
756 25 10
757 25 10
758 25 10
759 25 10
760 25 10
761 6 -43
762 6 -43
763 6 -43
764 6 -43
765 45 -41
766 45 -41
767 45 -41
768 45 -41
769 1 41
770 1 41
771 1 41
772 1 41
773 1 41
774 -39 -44
775 -39 -44
776 -13 12
777 -13 12
778 -13 12
779 -33 32
780 -33 32
781 -33 32
782 -33 32
783 -33 32
784 46 28
785 46 28
786 46 28
787 46 28
788 46 28
789 46 28
790 50 -18
791 50 -18
792 50 -18
793 50 -18
794 50 -18
795 50 -18
796 50 -18
DEMAND_SECTION
1 0
2 20
3 20
4 1
5 1
6 20
7 1
8 20
9 20
10 5
11 20
12 20
13 20
14 10
15 20
16 10
17 5
18 1
19 1
20 10
21 5
22 1
23 1
24 1
25 20
26 10
27 1
28 1
29 20
30 10
31 5
32 1
33 1
34 20
35 20
36 20
37 5
38 1
39 1
40 20
41 20
42 1
43 1
44 1
45 1
46 10
47 5
48 1
49 1
50 1
51 1
52 20
53 20
54 1
55 1
56 1
57 20
58 20
59 5
60 1
61 1
62 1
63 1
64 10
65 5
66 20
67 10
68 5
69 1
70 1
71 1
72 20
73 20
74 1
75 1
76 1
77 20
78 10
79 1
80 1
81 1
82 1
83 20
84 20
85 10
86 20
87 20
88 1
89 20
90 20
91 10
92 1
93 1
94 20
95 20
96 20
97 20
98 20
99 20
100 5
101 1
102 1
103 1
104 1
105 20
106 20
107 1
108 1
109 1
110 1
111 20
112 20
113 1
114 1
115 1
116 1
117 20
118 20
119 1
120 1
121 10
122 5
123 1
124 1
125 1
126 20
127 10
128 5
129 1
130 20
131 5
132 1
133 1
134 1
135 1
136 20
137 1
138 1
139 20
140 20
141 1
142 1
143 1
144 20
145 5
146 20
147 10
148 20
149 10
150 5
151 1
152 1
153 1
154 1
155 20
156 10
157 5
158 1
159 1
160 1
161 20
162 20
163 1
164 1
165 1
166 1
167 20
168 1
169 20
170 10
171 5
172 10
173 1
174 1
175 1
176 1
177 20
178 5
179 1
180 1
181 1
182 20
183 20
184 1
185 10
186 1
187 1
188 1
189 1
190 20
191 1
192 20
193 20
194 1
195 1
196 20
197 10
198 1
199 1
200 1
201 1
202 20
203 10
204 5
205 1
206 1
207 1
208 20
209 1
210 1
211 1
212 10
213 5
214 1
215 1
216 1
217 20
218 10
219 1
220 20
221 20
222 5
223 1
224 1
225 1
226 10
227 1
228 1
229 1
230 10
231 1
232 1
233 1
234 1
235 20
236 1
237 10
238 1
239 1
240 1
241 20
242 5
243 1
244 1
245 20
246 10
247 1
248 1
249 1
250 1
251 20
252 20
253 5
254 1
255 20
256 5
257 1
258 1
259 20
260 1
261 1
262 20
263 5
264 1
265 1
266 20
267 5
268 1
269 1
270 20
271 10
272 5
273 1
274 1
275 20
276 20
277 1
278 1
279 1
280 1
281 20
282 20
283 5
284 1
285 10
286 1
287 1
288 20
289 1
290 1
291 1
292 1
293 20
294 20
295 20
296 1
297 1
298 1
299 20
300 5
301 1
302 20
303 5
304 20
305 10
306 20
307 10
308 1
309 1
310 1
311 1
312 20
313 5
314 20
315 10
316 1
317 1
318 1
319 20
320 20
321 20
322 1
323 1
324 1
325 20
326 5
327 10
328 5
329 1
330 1
331 1
332 1
333 20
334 10
335 5
336 1
337 1
338 1
339 20
340 20
341 5
342 1
343 20
344 5
345 1
346 1
347 20
348 20
349 20
350 5
351 1
352 1
353 1
354 1
355 20
356 10
357 1
358 1
359 1
360 1
361 20
362 20
363 5
364 1
365 1
366 1
367 20
368 1
369 1
370 1
371 10
372 5
373 1
374 1
375 1
376 1
377 20
378 10
379 5
380 1
381 1
382 1
383 20
384 5
385 1
386 10
387 1
388 1
389 20
390 20
391 5
392 1
393 20
394 20
395 1
396 1
397 1
398 1
399 20
400 10
401 5
402 1
403 1
404 1
405 10
406 5
407 10
408 5
409 1
410 1
411 1
412 20
413 10
414 5
415 20
416 5
417 1
418 1
419 1
420 1
421 20
422 10
423 1
424 1
425 1
426 1
427 20
428 20
429 5
430 10
431 5
432 1
433 1
434 1
435 1
436 20
437 10
438 1
439 1
440 1
441 20
442 5
443 1
444 1
445 20
446 1
447 1
448 1
449 1
450 10
451 5
452 1
453 1
454 20
455 20
456 20
457 10
458 5
459 1
460 1
461 1
462 10
463 5
464 1
465 10
466 5
467 1
468 20
469 1
470 1
471 1
472 20
473 1
474 1
475 10
476 1
477 1
478 1
479 1
480 10
481 5
482 1
483 1
484 20
485 20
486 1
487 1
488 1
489 1
490 20
491 10
492 20
493 10
494 5
495 1
496 20
497 20
498 20
499 20
500 5
501 1
502 1
503 20
504 20
505 1
506 1
507 20
508 5
509 20
510 20
511 5
512 20
513 1
514 1
515 1
516 20
517 10
518 20
519 10
520 1
521 20
522 10
523 1
524 1
525 20
526 10
527 1
528 1
529 1
530 20
531 1
532 1
533 20
534 20
535 5
536 1
537 1
538 20
539 5
540 20
541 20
542 20
543 1
544 1
545 10
546 1
547 1
548 20
549 5
550 1
551 1
552 20
553 10
554 1
555 1
556 20
557 5
558 1
559 1
560 20
561 10
562 1
563 20
564 5
565 1
566 10
567 5
568 1
569 20
570 10
571 1
572 20
573 10
574 1
575 1
576 1
577 1
578 20
579 1
580 1
581 1
582 1
583 10
584 1
585 1
586 1
587 20
588 10
589 5
590 1
591 20
592 20
593 1
594 1
595 10
596 5
597 1
598 1
599 1
600 20
601 10
602 1
603 1
604 1
605 20
606 10
607 5
608 20
609 1
610 1
611 1
612 1
613 20
614 10
615 20
616 20
617 5
618 20
619 20
620 1
621 1
622 1
623 1
624 20
625 20
626 10
627 20
628 10
629 1
630 1
631 1
632 1
633 20
634 1
635 20
636 5
637 10
638 1
639 1
640 1
641 1
642 20
643 20
644 1
645 1
646 20
647 1
648 10
649 5
650 1
651 1
652 1
653 1
654 20
655 20
656 1
657 1
658 20
659 20
660 20
661 20
662 10
663 1
664 1
665 10
666 5
667 1
668 1
669 10
670 5
671 1
672 1
673 1
674 1
675 10
676 5
677 1
678 1
679 1
680 1
681 20
682 5
683 1
684 20
685 20
686 1
687 1
688 20
689 20
690 1
691 1
692 1
693 20
694 5
695 20
696 10
697 5
698 1
699 1
700 1
701 1
702 20
703 20
704 1
705 20
706 20
707 5
708 1
709 1
710 1
711 20
712 5
713 1
714 1
715 20
716 20
717 1
718 1
719 20
720 10
721 20
722 10
723 5
724 1
725 20
726 20
727 5
728 1
729 20
730 20
731 1
732 1
733 20
734 10
735 5
736 1
737 20
738 20
739 5
740 1
741 1
742 1
743 10
744 1
745 1
746 1
747 1
748 20
749 20
750 20
751 5
752 20
753 20
754 20
755 10
756 5
757 1
758 1
759 1
760 1
761 20
762 10
763 1
764 1
765 20
766 10
767 1
768 1
769 20
770 10
771 1
772 1
773 1
774 10
775 5
776 10
777 1
778 1
779 20
780 5
781 1
782 1
783 1
784 20
785 10
786 1
787 1
788 1
789 1
790 20
791 10
792 5
793 1
794 1
795 1
796 1
DEPOT_SECTION
1
-1
EOF