Normalized Data/p10_19_normalized_split0.sol
795 -9 8 7 677 678 674 676 679 675 664 666 665 667 663 662 661 312 781 780 -11 10 547 258 607 -14 18 12 13 499 498 500 497 501 -17 15 16 486 487 485 483 484 488 239 237 236 238 378 376 -26 27 24 700 697 696 699 698 694 695 468 467 409 406 408 410 407 -28 29 31 32 30 767 765 764 766 318 651 648 650 649 652 -34 33 352 351 348 353 349 350 143 144 -53 52 51 55 54 510 509 508 490 -61 62 60 221 223 224 219 426 428 427 444 446 447 445 448 690 -64 63 110 111 113 115 100 101 97 98 -66 65 705 706 708 707 709 704 471 472 473 -70 67 68 69 134 131 129 130 133 132 565 566 567 251 253 250 252 -71 72 84 83 773 182 -81 77 79 76 78 80 782 778 779 660 311 -82 774 296 297 293 295 294 587 181 183 -87 86 85 456 458 455 460 457 459 222 220 -99 103 102 112 114 559 560 561 787 786 784 788 785 783 541 542 543 -106 107 302 301 597 598 596 594 595 579 578 577 581 580 538 537 -125 720 722 723 721 520 521 522 523 -141 140 682 681 680 109 105 104 108 613 612 -147 151 450 449 451 452 37 38 35 36 254 256 257 255 549 548 550 -148 153 152 149 150 191 193 192 194 540 539 -156 325 324 2 4 3 1 734 732 735 -157 159 154 158 155 280 281 282 283 234 235 -163 165 161 162 164 640 639 637 636 638 270 273 271 272 461 462 463 241 242 240 243 -174 172 171 173 175 443 344 442 345 342 343 441 440 711 713 710 712 -179 178 176 180 177 573 575 572 574 576 571 5 6 233 230 232 229 231 -186 185 188 187 184 204 201 203 206 202 205 339 341 340 338 -207 216 217 718 719 274 -209 210 208 750 749 544 545 546 95 96 617 -212 215 25 128 126 127 412 411 413 630 627 626 631 -213 214 211 57 59 56 58 495 496 -218 91 89 90 92 309 310 307 306 308 305 379 377 381 380 489 -248 245 244 249 246 247 716 717 715 714 511 513 514 512 -260 259 145 146 616 615 614 292 -262 261 263 646 645 728 730 729 775 777 776 -264 516 515 726 725 724 727 45 48 46 47 50 49 731 -266 268 267 265 491 494 493 492 752 465 464 466 -269 333 335 337 334 336 332 120 276 124 277 122 121 275 278 123 279 -285 286 284 534 532 533 536 535 748 747 -287 291 289 288 290 21 19 22 23 20 88 529 531 530 476 475 478 474 477 -298 300 299 633 632 168 170 169 583 582 585 584 -303 304 647 751 454 453 -323 320 321 319 322 693 692 568 570 569 -328 330 329 327 331 326 360 361 363 365 364 362 634 635 -354 357 356 358 359 355 94 93 562 564 563 -368 369 367 366 391 390 388 389 742 745 659 -371 372 375 370 139 138 142 689 691 687 688 -374 373 347 227 228 225 226 346 316 315 317 314 313 733 -383 382 384 118 119 116 117 417 416 415 419 418 414 -385 386 387 189 190 507 506 393 392 395 -401 400 403 402 398 399 502 503 505 504 429 432 430 433 434 431 -404 405 166 167 517 518 519 756 753 759 758 757 755 -438 73 75 74 586 588 589 620 618 622 619 621 43 39 42 40 44 41 481 482 -470 469 653 628 629 656 654 655 421 424 420 425 422 423 669 671 672 670 668 673 -525 526 524 528 527 200 199 198 196 195 197 768 771 770 769 772 -554 553 551 552 590 593 592 591 -603 600 601 602 599 480 479 437 435 439 436 657 -606 604 605 644 642 643 641 658 -609 611 608 610 394 397 396 623 624 625 790 793 791 792 794 795 789 -685 686 684 683 160 557 555 558 556 754 -736 738 740 737 739 741 -744 743 746 137 135 136 702 703 701 763 762 760 761 0 





OBJ=
5495.491
BEST_KNOWN=
0.000